clingo version 5.4.0
Reading from merger/Marcus/merge.lp ...
Solving...
Answer: 1
init(object(order,1),value(pickingStation,1)). init(object(order,2),value(pickingStation,1)). init(object(node,6),value(at,(6,1))). init(object(node,7),value(at,(7,1))). init(object(node,8),value(at,(1,2))). init(object(node,9),value(at,(2,2))). init(object(node,10),value(at,(3,2))). init(object(node,11),value(at,(4,2))). init(object(node,12),value(at,(5,2))). init(object(node,13),value(at,(6,2))). init(object(node,14),value(at,(7,2))). init(object(robot,1),value(at,(6,2))). init(object(shelf,1),value(at,(2,2))). init(object(product,1),value(on,(1,1))). init(object(order,1),value(line,(1,2))). init(object(robot,2),value(at,(7,2))). init(object(shelf,2),value(at,(1,2))). init(object(product,2),value(on,(2,1))). init(object(order,2),value(line,(2,2))). init(object(pickingStation,1),value(at,(7,1))). occurs(object(robot,1),action(move,(-1,0)),1). occurs(object(robot,2),action(move,(-1,0)),1). occurs(object(robot,2),action(move,(-1,0)),2). occurs(object(robot,1),action(move,(-1,0)),2). occurs(object(robot,1),action(move,(-1,0)),3). occurs(object(robot,2),action(move,(-1,0)),3). occurs(object(robot,2),action(move,(-1,0)),4). occurs(object(robot,1),action(move,(-1,0)),4). occurs(object(robot,2),action(move,(1,0)),5). occurs(object(robot,1),action(move,(1,0)),5). occurs(object(robot,1),action(move,(1,0)),6). occurs(object(robot,2),action(move,(1,0)),6). occurs(object(robot,2),action(move,(1,0)),7). occurs(object(robot,1),action(move,(1,0)),7). occurs(object(robot,1),action(move,(1,0)),8). occurs(object(robot,2),action(move,(0,-1)),8). occurs(object(robot,2),action(move,(0,1)),9). occurs(object(robot,1),action(move,(1,0)),9). occurs(object(robot,1),action(move,(-1,0)),10). occurs(object(robot,2),action(move,(-1,0)),10). occurs(object(robot,2),action(move,(-1,0)),11). occurs(object(robot,1),action(move,(-1,0)),11). occurs(object(robot,1),action(move,(-1,0)),12). occurs(object(robot,2),action(move,(-1,0)),12). occurs(object(robot,2),action(move,(-1,0)),13). occurs(object(robot,1),action(move,(-1,0)),13). occurs(object(robot,1),action(move,(-1,0)),14). occurs(object(robot,2),action(move,(-1,0)),14).
SATISFIABLE

Models       : 1+
Calls        : 1
Time         : 2.913s (Solving: 0.24s 1st Model: 0.24s Unsat: 0.00s)
CPU Time     : 2.903s
